StudentsNr = 15;
InstructorsNr = 10;
DaysNr = 2;
SlotsPerDay = 10;
AvailabilitySlotsLenght = 2;
RoomNr = 2;
ProgrammNr = 2;
DegreeNr = 1;
RolesNr = 2;
CoursesNr = 3;
InstructorsProgramm = [{2}, {1, 2}, {1, 2}, {1}, {1}, {2}, {1, 2}, {2}, {1, 2}, {1}];
InstructorsRoles = [{}, {1}, {}, {1}, {2}, {2}, {1}, {}, {1}, {1}];
InstructorsAvailability = [|0, 0, 1, 1, 1, 1, 1, 1, 1, 1, |1, 1, 0, 1, 1, 1, 1, 1, 1, 1, |0, 0, 1, 1, 1, 0, 0, 0, 1, 1, |1, 1, 1, 1, 1, 1, 1, 0, 0, 1, |0, 1, 1, 1, 1, 1, 0, 0, 0, 0, |1, 1, 1, 1, 1, 1, 0, 1, 1, 1, |1, 1, 1, 1, 1, 1, 1, 1, 1, 1, |0, 0, 1, 1, 1, 1, 1, 1, 1, 1, |1, 1, 1, 1, 1, 1, 1, 1, 1, 1, |0, 0, 0, 1, 0, 0, 0, 1, 0, 1|];
StudentsProgramm = [1, 1, 1, 2, 2, 1, 1, 2, 2, 1, 1, 2, 1, 2, 1];
StudentsDegree = [1, 1, 1, 1, 1, 1, 1, 1, 1, 1, 1, 1, 1, 1, 1];
StudentsSupervisorId = [2, 9, 9, 6, 3, 9, 5, 7, 2, 5, 7, 7, 4, 3, 9];
StudentsCourseIds = [{3}, {3}, {2}, {2}, {3}, {3}, {3}, {3}, {2}, {3}, {3}, {2}, {1}, {2}, {2}];
StudentsAvailability = [|0, 0, 0, 1, 1, 0, 0, 0, 1, 0, |1, 1, 1, 1, 1, 1, 1, 1, 1, 1, |1, 1, 1, 1, 1, 1, 1, 1, 1, 1, |1, 1, 1, 1, 0, 1, 1, 0, 1, 1, |1, 1, 1, 1, 1, 1, 1, 1, 1, 1, |1, 1, 1, 1, 1, 0, 0, 1, 1, 1, |0, 0, 1, 1, 1, 1, 1, 0, 1, 1, |0, 1, 1, 0, 0, 1, 1, 1, 1, 1, |1, 1, 1, 0, 0, 0, 0, 0, 0, 0, |1, 1, 1, 1, 1, 1, 1, 1, 1, 1, |1, 1, 1, 1, 1, 0, 1, 1, 1, 1, |0, 0, 1, 1, 1, 1, 1, 1, 0, 0, |0, 1, 1, 1, 1, 1, 1, 1, 1, 1, |1, 0, 0, 1, 1, 1, 1, 0, 1, 1, |0, 1, 1, 1, 0, 1, 1, 1, 1, 0|];
CoursesInstructorIds = [{1, 10}, {2, 3, 4, 9, 10}, {4, 7, 9, 10}];
